
# Initialization
units		real
atom_style	full
variable name index ice_Ih668
log 		${name}.txt

# neighbour list search related settings
neighbor	1.0 bin
neigh_modify	every 10 one 10000

# read geometry
box tilt large
read_data	data.${name}
include forcefield.${name}

group hydrogen type 1
group oxygen type 2

# time step and output frequency
# thermo_style custom time temp pe ke etotal 
thermo_style	custom time temp pe ke etotal lx ly lz xy xz yz vol
thermo          1000
variable dt equal 2.0
variable T equal 175.0
variable P equal 1.0
timestep	$(dt)

####################################################
# Equilibration (NVT)
velocity all create $T 12310 mom yes rot yes dist gaussian
fix constrain all shake 1.0e-4 100 0 b 1 a 1 
fix         1 all nvt temp $T $T 10 drag 0.2
dump        1 all dcd 1000 eq.dcd
#run 100000
